40 780
1 2 37
1 3 37
1 4 45
1 5 45
1 6 116
1 7 12
1 8 23
1 9 2
1 10 53
1 11 17
1 12 46
1 13 3
1 14 41
1 15 7
1 16 119
1 17 65
1 18 49
1 19 45
1 20 61
1 21 35
1 22 18
1 23 18
1 24 116
1 25 116
1 26 102
1 27 76
1 28 16
1 29 6
1 30 62
1 31 27
1 32 46
1 33 45
1 34 64
1 35 62
1 36 11
1 37 15
1 38 23
1 39 100
1 40 13
2 3 50
2 4 33
2 5 55
2 6 28
2 7 113
2 8 58
2 9 91
2 10 78
2 11 57
2 12 104
2 13 75
2 14 95
2 15 109
2 16 44
2 17 37
2 18 75
2 19 57
2 20 39
2 21 9
2 22 33
2 23 47
2 24 39
2 25 36
2 26 22
2 27 40
2 28 25
2 29 54
2 30 112
2 31 119
2 32 69
2 33 105
2 34 90
2 35 26
2 36 78
2 37 91
2 38 19
2 39 30
2 40 49
3 4 93
3 5 52
3 6 44
3 7 61
3 8 34
3 9 107
3 10 79
3 11 43
3 12 28
3 13 60
3 14 76
3 15 51
3 16 41
3 17 56
3 18 16
3 19 39
3 20 33
3 21 9
3 22 11
3 23 92
3 24 4
3 25 98
3 26 28
3 27 10
3 28 79
3 29 107
3 30 17
3 31 58
3 32 9
3 33 45
3 34 71
3 35 102
3 36 48
3 37 55
3 38 108
3 39 80
3 40 19
4 5 118
4 6 45
4 7 31
4 8 108
4 9 23
4 10 11
4 11 29
4 12 44
4 13 29
4 14 19
4 15 76
4 16 51
4 17 85
4 18 55
4 19 52
4 20 23
4 21 61
4 22 115
4 23 6
4 24 39
4 25 98
4 26 74
4 27 30
4 28 44
4 29 83
4 30 98
4 31 47
4 32 78
4 33 13
4 34 7
4 35 15
4 36 93
4 37 89
4 38 90
4 39 19
4 40 22
5 6 35
5 7 70
5 8 4
5 9 76
5 10 82
5 11 22
5 12 66
5 13 91
5 14 41
5 15 76
5 16 93
5 17 105
5 18 51
5 19 32
5 20 14
5 21 56
5 22 89
5 23 82
5 24 81
5 25 117
5 26 23
5 27 73
5 28 53
5 29 97
5 30 94
5 31 68
5 32 86
5 33 56
5 34 91
5 35 38
5 36 119
5 37 16
5 38 32
5 39 31
5 40 66
6 7 22
6 8 113
6 9 106
6 10 42
6 11 115
6 12 82
6 13 72
6 14 69
6 15 102
6 16 84
6 17 9
6 18 2
6 19 7
6 20 102
6 21 91
6 22 49
6 23 3
6 24 99
6 25 12
6 26 115
6 27 22
6 28 106
6 29 0
6 30 81
6 31 104
6 32 17
6 33 19
6 34 61
6 35 5
6 36 61
6 37 6
6 38 5
6 39 4
6 40 79
7 8 105
7 9 107
7 10 65
7 11 89
7 12 68
7 13 75
7 14 99
7 15 65
7 16 105
7 17 43
7 18 104
7 19 107
7 20 37
7 21 14
7 22 15
7 23 55
7 24 89
7 25 47
7 26 10
7 27 19
7 28 91
7 29 66
7 30 96
7 31 45
7 32 25
7 33 3
7 34 104
7 35 36
7 36 103
7 37 49
7 38 32
7 39 15
7 40 86
8 9 5
8 10 47
8 11 33
8 12 47
8 13 47
8 14 50
8 15 62
8 16 50
8 17 54
8 18 71
8 19 52
8 20 21
8 21 36
8 22 88
8 23 11
8 24 10
8 25 31
8 26 59
8 27 45
8 28 29
8 29 37
8 30 28
8 31 68
8 32 105
8 33 6
8 34 112
8 35 23
8 36 41
8 37 114
8 38 56
8 39 24
8 40 104
9 10 48
9 11 9
9 12 23
9 13 44
9 14 109
9 15 66
9 16 30
9 17 46
9 18 37
9 19 91
9 20 103
9 21 44
9 22 7
9 23 62
9 24 52
9 25 108
9 26 95
9 27 88
9 28 5
9 29 31
9 30 30
9 31 48
9 32 116
9 33 115
9 34 99
9 35 58
9 36 97
9 37 107
9 38 34
9 39 54
9 40 15
10 11 72
10 12 105
10 13 54
10 14 12
10 15 71
10 16 109
10 17 19
10 18 104
10 19 24
10 20 26
10 21 102
10 22 85
10 23 51
10 24 6
10 25 32
10 26 6
10 27 94
10 28 98
10 29 7
10 30 95
10 31 30
10 32 41
10 33 8
10 34 44
10 35 39
10 36 119
10 37 82
10 38 18
10 39 24
10 40 36
11 12 28
11 13 52
11 14 56
11 15 55
11 16 45
11 17 88
11 18 84
11 19 40
11 20 58
11 21 57
11 22 81
11 23 113
11 24 63
11 25 29
11 26 30
11 27 83
11 28 95
11 29 16
11 30 71
11 31 86
11 32 71
11 33 91
11 34 42
11 35 2
11 36 78
11 37 57
11 38 83
11 39 68
11 40 1
12 13 47
12 14 64
12 15 40
12 16 56
12 17 20
12 18 40
12 19 2
12 20 71
12 21 77
12 22 94
12 23 11
12 24 44
12 25 101
12 26 50
12 27 114
12 28 71
12 29 66
12 30 9
12 31 113
12 32 114
12 33 20
12 34 106
12 35 28
12 36 114
12 37 65
12 38 37
12 39 80
12 40 72
13 14 93
13 15 113
13 16 68
13 17 61
13 18 57
13 19 81
13 20 19
13 21 119
13 22 42
13 23 64
13 24 16
13 25 65
13 26 63
13 27 8
13 28 15
13 29 83
13 30 81
13 31 20
13 32 91
13 33 94
13 34 96
13 35 24
13 36 23
13 37 25
13 38 111
13 39 101
13 40 6
14 15 97
14 16 83
14 17 18
14 18 93
14 19 108
14 20 17
14 21 32
14 22 6
14 23 80
14 24 91
14 25 59
14 26 12
14 27 14
14 28 51
14 29 2
14 30 61
14 31 59
14 32 82
14 33 21
14 34 1
14 35 75
14 36 47
14 37 18
14 38 51
14 39 113
14 40 79
15 16 68
15 17 53
15 18 118
15 19 63
15 20 116
15 21 8
15 22 12
15 23 82
15 24 15
15 25 81
15 26 20
15 27 64
15 28 57
15 29 58
15 30 30
15 31 42
15 32 63
15 33 32
15 34 77
15 35 106
15 36 16
15 37 109
15 38 78
15 39 95
15 40 49
16 17 112
16 18 115
16 19 34
16 20 13
16 21 81
16 22 86
16 23 46
16 24 82
16 25 10
16 26 93
16 27 14
16 28 76
16 29 46
16 30 56
16 31 12
16 32 101
16 33 105
16 34 86
16 35 51
16 36 115
16 37 10
16 38 109
16 39 51
16 40 14
17 18 115
17 19 111
17 20 68
17 21 70
17 22 49
17 23 104
17 24 47
17 25 72
17 26 112
17 27 35
17 28 51
17 29 11
17 30 11
17 31 11
17 32 53
17 33 19
17 34 87
17 35 27
17 36 113
17 37 18
17 38 119
17 39 38
17 40 44
18 19 59
18 20 118
18 21 103
18 22 102
18 23 113
18 24 63
18 25 66
18 26 41
18 27 43
18 28 3
18 29 99
18 30 78
18 31 57
18 32 100
18 33 115
18 34 64
18 35 39
18 36 10
18 37 68
18 38 50
18 39 45
18 40 40
19 20 70
19 21 51
19 22 100
19 23 25
19 24 42
19 25 30
19 26 10
19 27 34
19 28 17
19 29 15
19 30 70
19 31 6
19 32 75
19 33 107
19 34 20
19 35 1
19 36 104
19 37 94
19 38 76
19 39 65
19 40 53
20 21 64
20 22 118
20 23 69
20 24 44
20 25 43
20 26 97
20 27 95
20 28 6
20 29 2
20 30 74
20 31 17
20 32 68
20 33 109
20 34 80
20 35 14
20 36 11
20 37 33
20 38 103
20 39 33
20 40 17
21 22 80
21 23 43
21 24 100
21 25 113
21 26 62
21 27 1
21 28 55
21 29 42
21 30 41
21 31 88
21 32 75
21 33 63
21 34 107
21 35 39
21 36 28
21 37 96
21 38 76
21 39 73
21 40 8
22 23 35
22 24 99
22 25 38
22 26 38
22 27 20
22 28 68
22 29 14
22 30 77
22 31 94
22 32 16
22 33 33
22 34 44
22 35 103
22 36 8
22 37 16
22 38 75
22 39 4
22 40 81
23 24 82
23 25 92
23 26 11
23 27 102
23 28 93
23 29 36
23 30 83
23 31 85
23 32 48
23 33 13
23 34 68
23 35 19
23 36 26
23 37 64
23 38 83
23 39 117
23 40 26
24 25 107
24 26 34
24 27 32
24 28 110
24 29 50
24 30 25
24 31 4
24 32 58
24 33 102
24 34 112
24 35 79
24 36 97
24 37 17
24 38 26
24 39 42
24 40 112
25 26 16
25 27 58
25 28 64
25 29 26
25 30 28
25 31 55
25 32 106
25 33 114
25 34 60
25 35 15
25 36 86
25 37 14
25 38 108
25 39 23
25 40 18
26 27 31
26 28 89
26 29 13
26 30 33
26 31 77
26 32 118
26 33 116
26 34 59
26 35 58
26 36 40
26 37 33
26 38 117
26 39 57
26 40 54
27 28 70
27 29 41
27 30 34
27 31 33
27 32 112
27 33 21
27 34 86
27 35 16
27 36 39
27 37 40
27 38 93
27 39 119
27 40 40
28 29 36
28 30 64
28 31 69
28 32 73
28 33 23
28 34 99
28 35 40
28 36 41
28 37 65
28 38 48
28 39 82
28 40 62
29 30 90
29 31 81
29 32 83
29 33 108
29 34 108
29 35 27
29 36 19
29 37 100
29 38 83
29 39 31
29 40 51
30 31 61
30 32 43
30 33 49
30 34 31
30 35 54
30 36 111
30 37 60
30 38 97
30 39 0
30 40 89
31 32 35
31 33 34
31 34 109
31 35 87
31 36 63
31 37 15
31 38 83
31 39 83
31 40 13
32 33 111
32 34 59
32 35 19
32 36 33
32 37 37
32 38 46
32 39 49
32 40 101
33 34 20
33 35 64
33 36 107
33 37 57
33 38 53
33 39 43
33 40 31
34 35 15
34 36 29
34 37 55
34 38 86
34 39 100
34 40 107
35 36 65
35 37 78
35 38 28
35 39 108
35 40 14
36 37 23
36 38 95
36 39 102
36 40 44
37 38 64
37 39 26
37 40 59
38 39 84
38 40 83
39 40 57
